letting n =  10
letting blocks =  [[1, 9], [2, 2], [2, 4], [2, 6], [3, 7], [3, 9], [4, 3], [4, 4], [4, 8], [4, 9], [5, 2], [5, 4], [5, 10], [6, 1], [6, 5], [6, 9], [7, 1], [7, 6], [8, 5], [8, 8], [9, 3], [9, 7], [9, 10], [10, 1], [10, 4], [10, 6]]
